
Gurobi 7.5.1 (mac64, Python) logging started Sat Jan 27 18:08:01 2018

Academic license - for non-commercial use only

Gurobi 7.5.1 (mac64, Python) logging started Sun Jan 28 11:53:01 2018

Academic license - for non-commercial use only

Gurobi 7.5.1 (mac64, Python) logging started Tue Jan 30 08:54:01 2018

Academic license - for non-commercial use only

Gurobi 7.5.1 (mac64, Python) logging started Thu Feb  1 12:53:01 2018

Academic license - for non-commercial use only

Gurobi 7.5.1 (mac64, Python) logging started Thu Feb  1 13:22:01 2018

Academic license - for non-commercial use only

Gurobi 7.5.1 (mac64, Python) logging started Thu Feb  1 13:27:01 2018

Academic license - for non-commercial use only

Gurobi 7.5.1 (mac64, Python) logging started Thu Feb  1 13:30:01 2018

Academic license - for non-commercial use only

Gurobi 7.5.1 (mac64, Python) logging started Thu Feb  1 13:32:01 2018

Academic license - for non-commercial use only

Gurobi 7.5.1 (mac64, Python) logging started Thu Feb  1 13:59:01 2018

Academic license - for non-commercial use only

Gurobi 7.5.1 (mac64, Python) logging started Thu Feb  1 14:08:01 2018

Academic license - for non-commercial use only

Gurobi 7.5.1 (mac64, Python) logging started Thu Feb  1 14:12:01 2018

Academic license - for non-commercial use only

Gurobi 7.5.1 (mac64, Python) logging started Thu Feb  1 14:17:01 2018

Academic license - for non-commercial use only

Gurobi 7.5.1 (mac64, Python) logging started Thu Feb  1 14:26:01 2018

Academic license - for non-commercial use only

Gurobi 7.5.1 (mac64, Python) logging started Thu Feb  1 14:39:01 2018

Academic license - for non-commercial use only

Gurobi 7.5.1 (mac64, Python) logging started Thu Feb  1 15:28:01 2018

Academic license - for non-commercial use only

Gurobi 7.5.1 (mac64, Python) logging started Thu Feb  1 16:46:01 2018

Academic license - for non-commercial use only

Gurobi 7.5.1 (mac64, Python) logging started Fri Feb  2 10:06:01 2018

Academic license - for non-commercial use only

Gurobi 7.5.1 (mac64, Python) logging started Fri Feb  2 12:58:01 2018


Gurobi 7.5.1 (mac64, Python) logging started Fri Feb  2 12:58:01 2018


Gurobi 7.5.1 (mac64, Python) logging started Fri Feb  2 12:59:01 2018

Academic license - for non-commercial use only

Gurobi 7.5.1 (mac64, Python) logging started Fri Feb  2 13:42:01 2018

Academic license - for non-commercial use only

Gurobi 7.5.1 (mac64, Python) logging started Fri Feb  2 13:47:01 2018

Academic license - for non-commercial use only

Gurobi 7.5.1 (mac64, Python) logging started Fri Feb  2 13:50:01 2018

Academic license - for non-commercial use only

Gurobi 7.5.1 (mac64, Python) logging started Fri Feb  2 13:51:01 2018

Academic license - for non-commercial use only

Gurobi 7.5.1 (mac64, Python) logging started Fri Feb  2 13:54:01 2018

Academic license - for non-commercial use only

Gurobi 7.5.1 (mac64, Python) logging started Fri Feb  2 13:55:01 2018

Academic license - for non-commercial use only

Gurobi 7.5.1 (mac64, Python) logging started Fri Feb  2 13:56:01 2018

Academic license - for non-commercial use only

Gurobi 7.5.1 (mac64, Python) logging started Fri Feb  2 13:57:36 2018

Academic license - for non-commercial use only

Gurobi 7.5.1 (mac64, Python) logging started Fri Feb  2 13:57:53 2018

Academic license - for non-commercial use only

Gurobi 7.5.1 (mac64, Python) logging started Fri Feb  2 13:59:01 2018

Academic license - for non-commercial use only
